% File represents an instance of a Composite Structure problem to be solved by a CP framework
% Created on 2025-03-26 10:42:17.076
T = 58;
n = 36;
m = 60;
edges = [(2, 1),
(8, 7),
(14, 13),
(20, 19),
(25, 26),
(32, 31),
(3, 2),
(9, 8),
(15, 14),
(21, 20),
(27, 26),
(33, 32),
(3, 4),
(9, 10),
(15, 16),
(21, 22),
(27, 28),
(33, 34),
(5, 4),
(10, 11),
(17, 16),
(23, 22),
(29, 28),
(34, 35),
(6, 5),
(12, 11),
(18, 17),
(24, 23),
(30, 29),
(36, 35),
(7, 1),
(7, 13),
(13, 19),
(25, 19),
(25, 31),
(8, 2),
(8, 14),
(14, 20),
(20, 26),
(32, 26),
(9, 3),
(9, 15),
(15, 21),
(21, 27),
(33, 27),
(10, 4),
(10, 16),
(16, 22),
(22, 28),
(34, 28),
(5, 11),
(17, 11),
(17, 23),
(23, 29),
(29, 35),
(6, 12),
(18, 12),
(18, 24),
(24, 30),
(30, 36)];
counts = [|14, 4, 14, 8,
|14, 6, 14, 8,
|16, 8, 16, 8,
|16, 8, 16, 6,
|16, 10, 16, 10,
|16, 10, 16, 12,
|14, 4, 14, 12,
|14, 6, 14, 12,
|16, 8, 16, 12,
|16, 8, 16, 10,
|16, 6, 16, 10,
|16, 8, 16, 12,
|14, 2, 14, 10,
|14, 4, 14, 12,
|16, 6, 16, 12,
|16, 6, 16, 10,
|18, 6, 18, 10,
|18, 10, 18, 12,
|12, 2, 12, 8,
|14, 4, 14, 8,
|16, 4, 16, 10,
|14, 4, 14, 10,
|16, 6, 16, 10,
|18, 8, 18, 10,
|14, 4, 14, 8,
|14, 4, 14, 4,
|16, 4, 16, 6,
|14, 4, 14, 4,
|14, 6, 14, 8,
|16, 6, 16, 10,
|14, 4, 14, 6,
|14, 6, 14, 6,
|16, 6, 16, 8,
|16, 6, 16, 4,
|14, 6, 14, 4,
|14, 6, 14, 8|];
